jobs  (incl. supersource/sink ):	102
RESOURCES
- renewable                 : 2 R
- nonrenewable              : 2 N
- doubly constrained        : 0 D
************************************************************************
PRECEDENCE RELATIONS:
jobnr.    #modes  #successors   successors
1	1	11		2 3 4 6 7 8 9 10 12 13 16 
2	3	8		31 29 28 26 25 24 17 15 
3	3	2		26 5 
4	3	6		28 26 24 21 19 18 
5	3	5		29 28 25 22 14 
6	3	5		32 26 24 22 11 
7	3	7		32 31 29 26 24 22 17 
8	3	6		32 28 26 25 21 17 
9	3	4		32 26 25 11 
10	3	4		21 20 15 14 
11	3	5		35 31 29 20 18 
12	3	4		31 26 20 18 
13	3	6		35 30 27 23 21 20 
14	3	4		32 31 24 18 
15	3	3		35 32 18 
16	3	5		35 33 31 30 25 
17	3	4		30 27 23 20 
18	3	4		40 30 27 23 
19	3	5		40 37 32 29 27 
20	3	10		47 43 41 40 39 38 37 36 34 33 
21	3	7		47 43 39 38 34 33 31 
22	3	6		44 40 36 33 30 27 
23	3	9		49 47 43 39 38 37 36 34 33 
24	3	10		49 48 47 44 43 42 39 38 36 33 
25	3	9		50 49 43 41 39 38 37 36 34 
26	3	4		43 38 35 30 
27	3	9		53 50 49 48 47 43 41 39 38 
28	3	7		53 47 46 43 39 38 35 
29	3	8		58 53 52 48 43 42 39 36 
30	3	8		58 55 53 51 50 49 47 41 
31	3	5		50 49 44 40 36 
32	3	4		53 44 39 38 
33	3	9		68 55 54 53 52 51 50 46 45 
34	3	6		59 58 54 51 48 42 
35	3	3		48 44 40 
36	3	9		68 64 61 59 57 55 54 51 46 
37	3	6		59 55 54 51 46 44 
38	3	10		68 65 64 61 60 58 57 55 54 51 
39	3	6		68 64 59 55 54 45 
40	3	6		68 64 62 56 52 45 
41	3	5		68 56 52 46 45 
42	3	5		68 64 61 57 46 
43	3	7		74 71 64 62 60 59 55 
44	3	8		71 68 67 66 63 62 58 56 
45	3	6		67 65 63 61 60 57 
46	3	6		76 74 67 65 62 60 
47	3	4		71 63 62 54 
48	3	7		74 72 69 67 64 63 57 
49	3	7		82 76 74 70 68 67 60 
50	3	5		74 66 63 61 57 
51	3	6		82 74 69 67 66 63 
52	3	5		75 71 69 63 59 
53	3	4		71 66 64 56 
54	3	4		82 76 66 56 
55	3	5		82 75 72 67 63 
56	3	9		85 83 79 78 77 75 74 72 70 
57	3	8		85 83 79 77 75 73 71 70 
58	3	6		85 82 76 72 70 69 
59	3	6		89 83 82 77 72 67 
60	3	4		85 78 69 66 
61	3	10		88 86 85 83 82 79 77 76 75 73 
62	3	6		85 82 78 73 70 69 
63	3	7		83 79 78 77 76 73 70 
64	3	7		86 83 82 77 76 73 70 
65	3	6		88 85 83 79 73 71 
66	3	5		89 83 77 75 72 
67	3	6		88 86 85 81 78 73 
68	3	6		88 85 81 79 77 73 
69	3	5		92 89 88 83 77 
70	3	6		101 89 88 87 81 80 
71	3	6		101 89 87 86 81 78 
72	3	2		86 73 
73	3	4		101 92 87 80 
74	3	3		88 87 80 
75	3	7		101 100 97 92 91 90 84 
76	3	7		99 98 92 91 90 89 87 
77	3	2		87 80 
78	3	6		100 97 92 91 90 84 
79	3	6		101 100 97 91 90 84 
80	3	5		100 97 91 90 84 
81	3	6		100 97 96 92 91 90 
82	3	6		100 97 96 94 92 91 
83	3	6		101 99 98 96 94 91 
84	3	6		99 98 96 95 94 93 
85	3	4		98 96 92 90 
86	3	4		99 98 97 93 
87	3	3		100 97 93 
88	3	3		95 94 93 
89	3	3		96 94 93 
90	3	2		95 94 
91	3	1		93 
92	3	1		95 
93	3	1		102 
94	3	1		102 
95	3	1		102 
96	3	1		102 
97	3	1		102 
98	3	1		102 
99	3	1		102 
100	3	1		102 
101	3	1		102 
102	1	0		
************************************************************************
REQUESTS/DURATIONS
jobnr.	mode	dur	R1	R2	N1	N2	
------------------------------------------------------------------------
1	1	0	0	0	0	0	
2	1	2	2	5	0	10	
	2	3	2	3	0	10	
	3	5	1	2	0	10	
3	1	4	4	4	3	0	
	2	7	4	3	0	2	
	3	8	3	3	0	2	
4	1	4	3	4	7	0	
	2	5	3	3	4	0	
	3	8	3	1	4	0	
5	1	6	3	2	0	7	
	2	9	2	2	0	7	
	3	10	2	2	0	5	
6	1	7	3	4	8	0	
	2	7	2	3	0	5	
	3	8	2	3	0	4	
7	1	1	4	2	8	0	
	2	8	2	2	7	0	
	3	9	2	2	6	0	
8	1	4	5	5	8	0	
	2	8	3	3	0	6	
	3	9	2	1	0	6	
9	1	4	2	3	10	0	
	2	5	1	2	9	0	
	3	10	1	1	9	0	
10	1	1	4	2	0	5	
	2	3	4	2	6	0	
	3	6	2	2	0	2	
11	1	2	2	3	0	4	
	2	3	2	3	5	0	
	3	6	2	1	5	0	
12	1	2	1	1	0	6	
	2	9	1	1	0	3	
	3	10	1	1	0	1	
13	1	3	5	4	0	8	
	2	7	4	3	8	0	
	3	8	4	3	0	7	
14	1	3	4	2	7	0	
	2	5	4	2	6	0	
	3	8	4	2	0	2	
15	1	1	2	4	7	0	
	2	6	2	3	0	7	
	3	7	2	3	0	5	
16	1	1	4	4	5	0	
	2	8	4	3	0	6	
	3	10	3	1	0	6	
17	1	3	4	2	0	7	
	2	7	2	1	0	6	
	3	9	2	1	2	0	
18	1	3	5	4	0	8	
	2	5	5	4	0	6	
	3	7	5	3	4	0	
19	1	7	2	5	9	0	
	2	8	1	2	9	0	
	3	9	1	1	9	0	
20	1	5	4	4	6	0	
	2	6	4	4	0	6	
	3	10	2	3	0	4	
21	1	4	2	3	0	4	
	2	9	2	3	6	0	
	3	9	2	3	0	3	
22	1	1	3	3	7	0	
	2	3	2	3	7	0	
	3	6	2	3	5	0	
23	1	2	3	5	0	7	
	2	4	3	3	0	5	
	3	7	1	2	0	5	
24	1	1	5	3	0	2	
	2	4	4	3	4	0	
	3	6	3	1	4	0	
25	1	3	4	4	0	9	
	2	3	2	4	5	0	
	3	4	2	4	4	0	
26	1	2	5	5	0	6	
	2	4	4	5	5	0	
	3	7	2	5	5	0	
27	1	2	2	4	9	0	
	2	6	1	3	7	0	
	3	6	1	2	0	2	
28	1	1	1	2	1	0	
	2	4	1	1	0	3	
	3	8	1	1	1	0	
29	1	1	5	4	0	5	
	2	6	4	2	8	0	
	3	10	2	2	8	0	
30	1	4	2	5	0	10	
	2	4	2	4	7	0	
	3	8	2	4	1	0	
31	1	5	5	4	0	9	
	2	5	4	4	8	0	
	3	10	4	4	7	0	
32	1	3	4	3	10	0	
	2	8	4	3	0	5	
	3	9	4	3	0	3	
33	1	2	4	3	9	0	
	2	9	3	3	9	0	
	3	10	2	1	0	3	
34	1	6	4	4	0	4	
	2	9	3	3	0	4	
	3	10	2	1	4	0	
35	1	4	3	5	10	0	
	2	4	1	2	0	6	
	3	5	1	1	0	6	
36	1	2	2	3	7	0	
	2	3	1	3	7	0	
	3	10	1	1	7	0	
37	1	7	1	3	0	4	
	2	8	1	2	0	3	
	3	9	1	1	0	3	
38	1	4	3	2	0	8	
	2	5	2	1	0	6	
	3	6	1	1	0	5	
39	1	2	1	2	0	5	
	2	7	1	2	0	4	
	3	8	1	2	0	3	
40	1	2	3	3	0	3	
	2	3	3	1	0	1	
	3	7	3	1	2	0	
41	1	2	3	5	0	8	
	2	3	2	5	0	6	
	3	8	1	5	0	1	
42	1	1	2	1	0	7	
	2	5	1	1	0	6	
	3	7	1	1	9	0	
43	1	8	5	5	7	0	
	2	9	4	4	5	0	
	3	10	3	3	4	0	
44	1	1	3	4	3	0	
	2	5	2	3	2	0	
	3	5	2	3	0	2	
45	1	4	3	3	6	0	
	2	8	3	2	6	0	
	3	9	1	1	0	5	
46	1	4	4	5	8	0	
	2	6	4	4	8	0	
	3	9	3	2	0	7	
47	1	1	4	3	0	7	
	2	2	4	3	0	4	
	3	8	4	3	9	0	
48	1	2	1	3	10	0	
	2	7	1	3	9	0	
	3	9	1	2	0	8	
49	1	2	3	4	4	0	
	2	4	3	2	3	0	
	3	10	3	2	2	0	
50	1	2	4	2	9	0	
	2	6	2	2	7	0	
	3	9	2	2	6	0	
51	1	2	3	4	0	10	
	2	6	2	4	0	9	
	3	7	1	4	2	0	
52	1	3	4	2	0	8	
	2	4	2	1	8	0	
	3	9	2	1	0	7	
53	1	2	3	4	6	0	
	2	3	3	3	5	0	
	3	5	3	3	3	0	
54	1	3	4	1	0	7	
	2	4	3	1	0	6	
	3	8	1	1	0	6	
55	1	2	1	3	8	0	
	2	3	1	3	0	6	
	3	8	1	3	0	5	
56	1	4	5	4	6	0	
	2	4	4	4	0	7	
	3	6	4	4	0	1	
57	1	1	2	3	0	6	
	2	2	2	3	0	5	
	3	6	2	3	3	0	
58	1	3	3	2	6	0	
	2	4	2	2	0	9	
	3	10	2	2	5	0	
59	1	5	1	2	0	8	
	2	6	1	2	0	7	
	3	10	1	2	0	6	
60	1	2	4	4	0	6	
	2	8	4	4	0	5	
	3	9	4	4	0	4	
61	1	4	5	4	8	0	
	2	4	4	2	0	4	
	3	10	4	2	0	3	
62	1	4	3	4	0	9	
	2	5	2	3	0	9	
	3	7	2	3	0	8	
63	1	2	3	3	0	7	
	2	3	3	2	4	0	
	3	7	3	2	2	0	
64	1	1	3	2	0	9	
	2	3	3	2	0	5	
	3	10	2	2	0	3	
65	1	2	2	5	9	0	
	2	7	2	5	8	0	
	3	10	2	5	0	8	
66	1	5	2	2	0	1	
	2	6	2	1	6	0	
	3	8	2	1	0	1	
67	1	4	2	5	9	0	
	2	6	1	3	0	4	
	3	7	1	1	0	4	
68	1	8	3	3	8	0	
	2	8	2	3	0	5	
	3	10	2	1	6	0	
69	1	5	3	3	9	0	
	2	8	3	3	4	0	
	3	10	3	3	1	0	
70	1	3	4	2	0	3	
	2	3	3	1	3	0	
	3	6	1	1	0	2	
71	1	2	4	3	0	9	
	2	6	4	2	4	0	
	3	9	4	2	0	6	
72	1	2	3	3	0	9	
	2	6	2	1	7	0	
	3	8	2	1	0	4	
73	1	6	2	3	0	10	
	2	10	1	3	0	6	
	3	10	1	3	1	0	
74	1	2	4	3	0	6	
	2	8	4	3	3	0	
	3	9	4	3	0	5	
75	1	3	5	4	0	7	
	2	5	4	4	6	0	
	3	6	2	4	0	7	
76	1	3	3	4	9	0	
	2	4	2	3	8	0	
	3	10	2	3	0	6	
77	1	1	3	4	4	0	
	2	3	3	2	2	0	
	3	8	3	1	1	0	
78	1	2	3	3	9	0	
	2	5	2	2	5	0	
	3	5	2	1	0	5	
79	1	4	4	3	5	0	
	2	8	2	3	0	3	
	3	9	2	3	4	0	
80	1	1	2	1	0	6	
	2	2	2	1	0	5	
	3	5	2	1	3	0	
81	1	6	4	3	3	0	
	2	8	3	3	0	5	
	3	10	2	1	0	4	
82	1	1	4	3	0	1	
	2	5	2	3	1	0	
	3	6	2	2	1	0	
83	1	8	4	2	7	0	
	2	8	3	1	0	4	
	3	9	2	1	0	3	
84	1	6	4	5	6	0	
	2	8	4	2	0	3	
	3	10	4	2	4	0	
85	1	2	2	3	0	7	
	2	3	1	2	5	0	
	3	4	1	1	0	3	
86	1	2	5	2	0	4	
	2	6	4	1	0	3	
	3	7	4	1	0	2	
87	1	4	3	4	0	7	
	2	9	3	3	0	5	
	3	10	1	2	10	0	
88	1	1	4	5	4	0	
	2	6	3	5	2	0	
	3	7	3	5	0	1	
89	1	1	1	4	0	4	
	2	1	1	3	6	0	
	3	3	1	2	0	4	
90	1	1	4	4	6	0	
	2	4	4	4	4	0	
	3	5	4	2	0	7	
91	1	1	5	5	6	0	
	2	7	4	4	4	0	
	3	10	2	4	0	8	
92	1	5	1	2	0	8	
	2	7	1	2	0	6	
	3	8	1	2	2	0	
93	1	1	5	3	6	0	
	2	2	5	1	4	0	
	3	10	5	1	0	3	
94	1	3	5	2	5	0	
	2	4	4	2	0	6	
	3	10	3	2	2	0	
95	1	6	3	3	0	8	
	2	9	2	3	0	6	
	3	10	2	3	0	5	
96	1	5	4	2	0	3	
	2	8	4	2	6	0	
	3	10	3	1	6	0	
97	1	4	4	5	0	9	
	2	5	3	3	6	0	
	3	8	1	3	4	0	
98	1	1	2	3	0	4	
	2	4	1	3	4	0	
	3	7	1	2	3	0	
99	1	1	5	1	0	8	
	2	2	2	1	7	0	
	3	7	1	1	5	0	
100	1	1	4	3	7	0	
	2	3	4	2	0	1	
	3	9	3	1	0	1	
101	1	7	4	3	0	2	
	2	9	3	3	1	0	
	3	9	2	3	0	2	
102	1	0	0	0	0	0	
************************************************************************

 RESOURCE AVAILABILITIES 
	R 1	R 2	N 1	N 2
	13	13	286	290

************************************************************************
